name="miles1000";
nr_vertices=128;
nr_edges=3216;
neighborhoods=[{127,124,121,119,118,116,113,109,108,107,104,102,101,99,97,96,91,90,89,87,79,78,77,75,73,72,71,69,67,66,64,63,61,56,54,46,43,42,38,36,32,31,30,27,26,22,18,15,11,7},{127,126,125,122,121,117,115,114,113,112,110,109,107,106,105,100,99,98,95,94,93,92,91,90,88,87,85,83,82,81,75,74,72,70,69,68,67,66,65,63,61,60,59,57,55,52,51,45,44,42,40,37,35,29,27,26,24,23,22,21,19,18,13,12,9,7,6,5},{123,120,103,86,84,80,76,62,58,53,49,48,47,41,39,36,34,33,32,31,28,25,20,17,16,15,14,11,10,8,4,3},{2,123,111,103,86,84,80,76,62,58,53,49,48,47,41,39,28,25,20,17,16,14,10,8,4},{2,3,123,120,116,111,103,101,86,84,80,76,73,62,58,53,49,48,47,46,41,39,36,34,32,31,28,25,20,17,15,14,11,10,8},{1,127,126,125,122,121,115,114,112,110,109,107,106,105,102,97,95,94,92,91,90,88,87,83,75,74,70,69,68,67,66,65,63,61,59,56,55,54,52,51,44,40,37,29,27,26,23,22,19,12,9,7},{1,127,126,125,124,122,121,117,116,115,114,113,112,110,109,107,106,104,101,100,99,98,96,93,92,91,90,89,87,85,82,81,78,77,75,74,73,72,68,67,65,64,63,61,60,57,52,51,50,45,44,42,40,38,37,35,29,27,26,24,23,21,19,18,13,9,7},{0,1,5,6,127,126,125,124,122,121,117,116,115,114,113,112,110,109,108,107,106,104,102,101,100,99,98,97,96,95,93,92,91,90,89,88,87,85,83,82,81,79,78,77,75,74,73,72,70,69,68,67,66,65,64,63,61,60,57,56,54,52,51,50,45,44,42,40,38,37,35,32,29,27,26,24,23,19,18,15,13,12,9},{2,3,4,123,111,103,86,84,80,76,62,58,53,49,48,47,41,39,28,25,20,17,16,14,10},{1,5,6,7,127,126,125,122,121,117,115,114,113,112,110,109,106,99,98,95,93,92,91,90,88,87,85,83,82,81,75,74,72,70,69,68,67,65,63,61,60,59,57,55,52,51,45,44,42,40,37,35,29,27,26,24,23,22,21,19,18,13,12},{2,3,4,8,123,103,84,80,62,58,49,48,41,39,34,25,20,17,16},{0,2,4,127,124,120,119,118,116,113,111,109,108,107,104,102,101,97,96,89,86,79,78,77,73,71,66,56,54,47,46,43,38,36,34,32,31,30,28,26,15},{1,5,7,9,127,126,125,122,121,115,114,112,110,107,106,105,102,95,94,93,92,91,90,88,87,85,83,81,75,74,70,69,68,67,66,65,63,61,60,59,57,56,55,54,52,51,44,40,37,29,27,26,24,23,22,19},{1,6,7,9,127,126,125,124,122,117,116,115,114,113,112,109,107,106,104,100,99,98,96,93,92,91,90,89,87,85,82,81,78,77,75,74,73,72,68,67,65,64,61,57,52,51,50,45,44,42,38,37,29,27,26,24,23,19,18},{2,3,4,8,123,111,103,76,58,53,48,47,39,36,28,25,20,17},{0,2,4,7,11,127,124,120,119,116,113,109,108,107,104,101,100,99,97,96,89,86,79,78,77,73,72,64,50,47,46,43,42,38,36,34,33,32,31,30,26,18},{2,3,8,10,103,84,80,62,58,49,48,41,20},{2,3,4,8,10,14,123,111,103,86,84,80,76,62,58,53,49,48,47,41,39,28,25,20},{0,1,6,7,9,13,15,127,125,124,122,121,120,116,114,113,112,109,108,107,106,104,101,100,99,98,96,93,91,90,89,87,82,79,78,77,75,74,73,72,68,67,66,65,64,63,61,57,51,50,44,42,38,33,32,29,27,26,19},{1,5,6,7,9,12,13,18,127,126,125,122,121,117,115,114,113,112,110,109,106,100,99,98,95,93,92,91,90,88,87,85,83,82,81,75,74,72,70,68,67,65,63,61,60,57,52,51,45,44,42,40,38,37,35,29,27,26,24,23,21},{2,3,4,8,10,14,16,17,123,111,103,86,84,80,76,62,58,53,49,48,47,41,39,28,25},{1,6,9,19,126,125,122,117,115,114,112,110,106,98,93,92,91,90,85,83,82,81,74,68,67,65,61,60,57,52,51,45,44,40,37,35,29,27,24,23},{0,1,5,9,12,127,126,125,122,121,118,112,110,109,108,107,106,105,102,97,95,94,92,91,90,88,87,83,75,74,71,70,69,67,66,65,63,61,59,56,55,54,51,44,43,40,27,26,23},{1,5,6,7,9,12,13,19,21,22,127,126,125,122,121,117,115,114,112,110,106,99,98,95,93,92,91,90,88,87,85,83,82,81,75,74,72,70,69,68,67,65,63,61,60,59,57,52,51,45,44,42,40,37,35,29,27,26,24},{1,6,7,9,12,13,19,21,23,127,126,125,122,117,115,114,112,110,106,99,98,95,93,92,91,90,87,85,83,82,81,75,74,72,70,68,67,65,61,60,57,52,51,45,44,42,40,37,35,29,27,26},{2,3,4,8,10,14,17,20,123,111,103,86,84,80,76,62,58,53,49,48,47,41,39,28},{0,1,5,6,7,9,11,12,13,15,18,19,22,23,24,127,126,125,124,122,121,119,118,116,115,114,113,112,110,109,108,107,106,104,102,101,100,99,98,97,96,95,93,92,91,90,89,88,87,83,82,79,78,77,75,74,73,72,71,70,69,68,67,66,65,64,63,61,59,57,56,54,52,51,45,44,43,42,40,38,37,32,31,30,29,27},{0,1,5,6,7,9,12,13,18,19,21,22,23,24,26,127,126,125,124,122,121,117,116,115,114,113,112,110,109,108,107,106,104,101,100,99,98,96,95,93,92,91,90,89,88,87,85,83,82,81,79,78,77,75,74,73,72,70,69,68,67,66,65,64,63,61,60,57,54,52,51,45,44,42,40,38,37,35,29},{2,3,4,8,11,14,17,20,25,123,111,103,86,76,58,53,48,47,46,39,36,31},{1,5,6,7,9,12,13,18,19,21,23,24,26,27,127,126,125,122,121,117,115,114,113,112,110,106,99,98,95,93,92,91,90,88,87,85,83,82,81,75,74,72,70,69,68,67,65,63,61,60,59,57,52,51,45,44,42,40,37,35},{0,11,15,26,127,124,121,119,118,116,113,111,109,108,107,104,102,101,97,96,89,87,79,78,77,75,73,71,69,66,63,56,54,46,43,42,38,36,32,31},{0,2,4,11,15,26,28,30,127,120,119,116,113,111,109,108,107,104,102,101,97,96,89,86,79,78,73,71,64,56,54,47,46,43,38,36,34,32},{0,2,4,7,11,15,18,26,30,31,127,124,120,119,116,113,111,109,108,107,104,102,101,100,99,97,96,90,89,87,86,79,78,77,75,73,72,71,64,61,56,54,50,47,46,43,42,38,36,34,33},{2,15,18,32,124,120,116,113,104,100,96,86,80,77,73,72,64,62,50,49,38,34},{2,4,10,11,15,31,32,33,124,120,116,113,104,101,96,89,86,80,79,78,77,73,64,62,50,49,47,46,41,38,36},{1,6,7,9,19,21,23,24,27,29,126,125,122,117,115,114,112,110,106,98,95,93,92,91,90,87,85,83,82,81,74,68,67,65,61,60,57,52,51,45,44,40,37},{0,2,4,11,14,15,28,30,31,32,34,119,118,116,111,109,108,107,104,102,101,97,89,86,79,78,76,73,71,56,54,53,47,46,43},{1,5,6,7,9,12,13,19,21,23,24,26,27,29,35,127,126,125,122,121,117,115,114,112,110,106,99,98,95,93,92,91,90,88,87,85,83,82,81,75,74,70,68,67,65,61,60,59,57,52,51,45,44,42,40},{0,6,7,11,13,15,18,19,26,27,30,31,32,33,34,127,125,124,122,121,120,116,114,113,112,109,108,107,106,104,102,101,100,99,98,97,96,93,91,90,89,87,82,79,78,77,75,73,72,68,67,65,64,63,61,56,54,51,50,44,42},{2,3,4,8,10,14,17,20,25,28,123,111,103,84,80,76,58,53,48,47,41},{1,5,6,7,9,12,19,21,22,23,24,26,27,29,35,37,127,126,125,122,121,117,115,114,112,110,106,98,95,93,92,91,90,88,87,85,83,82,81,75,74,70,69,68,67,65,61,60,59,57,55,52,51,45,44,42},{2,3,4,8,10,16,17,20,25,34,39,123,103,86,84,80,62,58,49,48,47},{0,1,6,7,9,13,15,18,19,23,24,26,27,29,30,32,37,38,40,127,126,125,124,122,121,117,116,115,114,113,112,110,109,108,107,106,104,102,101,100,99,98,97,96,95,93,92,91,90,89,87,85,82,81,79,78,77,75,74,73,72,70,69,68,67,66,65,64,63,61,57,56,54,52,51,50,45,44},{0,11,15,22,26,30,31,32,36,127,121,119,118,116,113,111,109,108,107,104,102,101,97,89,88,87,79,78,75,73,71,70,69,66,63,56,54,46},{1,5,6,7,9,12,13,18,19,21,22,23,24,26,27,29,35,37,38,40,42,127,126,125,124,122,121,117,115,114,113,112,110,109,107,106,100,99,98,95,93,92,91,90,89,88,87,85,83,82,81,78,77,75,74,73,72,70,69,68,67,65,63,61,60,59,57,52,51,45},{1,6,7,9,13,19,21,23,24,26,27,29,35,37,40,42,44,127,126,125,122,117,115,114,112,110,106,99,98,95,93,92,91,90,87,85,83,82,81,75,74,72,68,67,65,61,60,57,52,51},{0,4,11,15,28,30,31,32,34,36,43,119,118,116,111,109,108,107,102,101,97,89,86,79,78,76,73,71,66,56,54,53,47},{2,3,4,8,11,14,15,17,20,25,28,31,32,34,36,39,41,46,123,111,103,86,80,76,62,53,48},{2,3,4,8,10,14,16,17,20,25,28,39,41,47,123,103,84,80,76,62,58,53,49},{2,3,4,8,10,16,17,20,25,33,34,41,48,123,103,86,84,80,62,58},{6,7,13,15,18,32,33,34,38,42,127,124,120,116,113,109,104,101,100,99,96,90,89,79,78,77,73,72,64,61},{1,5,6,7,9,12,13,18,19,21,22,23,24,26,27,29,35,37,38,40,42,44,45,127,126,125,124,122,121,117,116,115,114,113,112,110,109,108,107,106,104,101,100,99,98,96,95,93,92,91,90,89,88,87,85,83,82,81,79,78,77,75,74,73,72,70,69,68,67,66,65,63,61,60,57,54,52},{1,5,6,7,9,12,13,19,21,23,24,26,27,29,35,37,40,42,44,45,51,127,126,125,122,117,115,114,113,112,110,106,99,98,95,93,92,91,90,87,85,83,82,81,75,74,72,70,68,67,65,61,60,57},{2,3,4,8,14,17,20,25,28,36,39,46,47,48,123,111,103,86,76},{0,5,7,11,12,22,26,27,30,31,32,36,38,42,43,46,51,127,126,121,119,118,116,113,109,108,107,106,104,102,101,99,97,96,95,91,90,89,88,87,79,78,77,75,74,73,72,71,70,69,67,66,63,61,59,56,55},{1,5,9,12,22,40,54,126,121,112,110,106,105,95,94,92,88,83,75,74,70,69,66,63,59,56},{0,5,7,11,12,22,26,30,31,32,36,38,42,43,46,54,55,127,126,121,119,118,116,113,109,108,107,106,104,102,101,99,97,95,94,91,90,89,88,87,79,78,75,73,71,70,69,67,66,63,61,59},{1,6,7,9,12,13,18,19,21,23,24,26,27,29,35,37,40,42,44,45,51,52,127,126,125,122,117,115,114,113,112,110,106,99,98,95,93,92,91,90,87,85,83,82,81,75,74,72,70,68,67,65,61,60},{2,3,4,8,10,14,16,17,20,25,28,39,41,48,49,123,103,86,84,80,76,62},{1,5,9,12,22,23,26,29,37,40,44,54,55,56,127,126,125,122,121,112,110,106,105,102,95,94,92,91,88,87,83,75,74,70,69,67,66,63},{1,6,7,9,12,19,21,23,24,27,29,35,37,40,44,45,51,52,57,126,125,122,117,115,114,112,110,106,98,95,93,92,91,90,87,85,83,82,81,75,74,70,68,67,65,61},{0,1,5,6,7,9,12,13,18,19,21,22,23,24,26,27,29,32,35,37,38,40,42,44,45,50,51,52,54,56,57,60,127,126,125,124,122,121,117,116,115,114,113,112,110,109,108,107,106,104,102,101,100,99,98,97,96,95,93,92,91,90,89,88,87,85,83,82,81,79,78,77,75,74,73,72,70,69,68,67,66,65,64,63},{2,3,4,8,10,16,17,20,25,33,34,41,47,48,49,58,123,120,103,86,84,80},{0,1,5,6,7,9,12,18,19,22,23,26,27,29,30,38,42,43,44,51,54,55,56,59,61,127,126,125,124,122,121,119,118,116,114,113,112,110,109,108,107,106,105,104,102,101,100,99,98,97,95,94,92,91,90,89,88,87,83,79,78,77,75,74,73,72,71,70,69,68,67,66,65},{0,6,7,13,15,18,26,27,31,32,33,34,38,42,50,61,127,124,120,116,113,109,108,107,104,101,100,99,98,96,90,89,87,86,79,78,77,75,73,72,67},{1,5,6,7,9,12,13,18,19,21,22,23,24,26,27,29,35,37,38,40,42,44,45,51,52,57,60,61,63,127,126,125,124,122,121,117,116,115,114,113,112,110,109,108,107,106,104,101,100,99,98,96,95,93,92,91,90,89,88,87,85,83,82,81,78,77,75,74,73,72,70,69,68,67,66},{0,1,5,7,11,12,18,22,26,27,30,42,43,46,51,54,55,56,59,61,63,65,127,126,125,122,121,119,118,116,114,113,110,109,108,107,106,105,102,101,99,98,97,95,94,91,90,89,88,87,83,79,78,75,74,73,72,71,70,69,67},{0,1,5,6,7,9,12,13,18,19,21,22,23,24,26,27,29,35,37,38,40,42,44,45,51,52,54,56,57,59,60,61,63,64,65,66,127,126,125,124,122,121,117,116,115,114,113,112,110,109,108,107,106,104,102,101,100,99,98,97,96,95,93,92,91,90,89,88,87,85,83,82,81,79,78,77,75,74,73,72,70,69,68},{1,5,6,7,9,12,13,18,19,21,23,24,26,27,29,35,37,38,40,42,44,45,51,52,57,60,61,63,65,67,127,126,125,124,122,121,117,115,114,113,112,110,109,107,106,100,99,98,95,93,92,91,90,87,85,83,82,81,78,77,75,74,73,72,70,69},{0,1,5,7,9,12,22,23,26,27,29,30,40,42,43,44,51,54,55,56,59,61,63,65,66,67,68,127,126,125,122,121,119,118,114,113,112,110,109,108,107,106,105,102,101,99,98,97,95,94,92,91,90,89,88,87,83,79,78,75,74,71,70},{1,5,7,9,12,19,22,23,24,26,27,29,37,40,42,43,44,51,52,54,55,56,57,59,60,61,63,65,66,67,68,69,127,126,125,122,121,115,114,112,110,109,107,106,105,102,98,97,95,94,93,92,91,90,88,87,85,83,75,74},{0,11,22,26,30,31,32,36,43,46,54,56,63,66,69,121,119,118,111,109,108,107,102,101,97,89,79,78},{0,1,6,7,9,13,15,18,19,23,24,26,27,29,32,33,38,42,44,45,50,51,52,54,57,61,63,64,65,66,67,68,127,126,125,124,122,121,120,116,115,114,113,112,109,108,107,106,104,101,100,99,98,96,93,91,90,89,87,82,79,78,77,75,74,73},{0,4,6,7,11,13,15,18,26,27,30,31,32,33,34,36,38,42,43,44,46,50,51,54,56,61,63,64,65,66,67,68,72,127,125,124,122,120,119,116,114,113,109,108,107,104,102,101,100,99,98,97,96,91,90,89,87,86,79,78,77,75},{1,5,6,7,9,12,13,18,19,21,22,23,24,26,27,29,35,37,40,42,44,45,51,52,54,55,57,59,60,61,63,65,66,67,68,69,70,72,127,126,125,122,121,117,115,114,113,112,110,109,107,106,105,100,99,98,95,94,93,92,91,90,88,87,85,83,82,81,78,75},{0,1,5,6,7,9,12,13,18,19,22,23,24,26,27,29,30,32,37,38,40,42,43,44,45,51,52,54,55,56,57,59,60,61,63,64,65,66,67,68,69,70,72,73,74,127,126,125,124,122,121,117,116,115,114,113,112,110,109,108,107,106,104,102,101,100,99,98,97,96,95,94,93,92,91,90,89,88,87,85,83,82,81,79,78,77},{2,3,4,8,14,17,20,25,28,36,39,46,47,48,53,58,123,111,103,86},{0,6,7,11,13,15,18,26,27,30,32,33,34,38,42,44,50,51,54,61,63,64,65,67,68,72,73,75,127,125,124,122,120,116,114,113,109,108,107,106,104,101,100,99,98,97,96,91,90,89,87,82,79,78},{0,6,7,11,13,15,18,26,27,30,31,32,34,36,38,42,43,44,46,50,51,54,56,61,63,64,65,66,67,68,69,71,72,73,74,75,77,127,125,124,122,121,120,119,118,116,114,113,109,108,107,106,104,102,101,100,99,98,97,96,91,90,89,87,86,82,79},{0,7,11,15,18,26,27,30,31,32,34,36,38,42,43,46,50,51,54,56,61,63,64,66,67,69,71,72,73,75,77,78,127,124,121,119,118,116,113,109,108,107,104,102,101,100,99,98,97,96,91,90,89,87,86},{2,3,4,8,10,16,17,20,25,33,34,39,41,47,48,49,58,62,123,103,86,84},{1,6,7,9,12,13,19,21,23,24,27,29,35,37,40,42,44,45,51,52,57,60,61,65,67,68,74,75,127,126,125,122,117,115,114,112,110,106,98,95,93,92,91,90,87,85,83,82},{1,6,7,9,13,18,19,21,23,24,26,27,29,35,37,38,40,42,44,45,51,52,57,60,61,65,67,68,72,74,75,77,78,81,127,126,125,124,122,117,115,114,113,112,110,109,107,106,100,99,98,95,93,92,91,90,87,85,83},{1,5,7,9,12,19,21,22,23,24,26,27,29,35,37,40,44,45,51,52,55,57,59,60,61,63,65,66,67,68,69,70,74,75,81,82,127,126,125,122,121,117,115,114,112,110,106,105,98,95,94,93,92,91,90,88,87,85},{2,3,4,8,10,16,17,20,25,39,41,48,49,58,62,80,123,103},{1,6,7,9,12,13,19,21,23,24,27,29,35,37,40,42,44,45,51,52,57,60,61,65,67,68,70,74,75,81,82,83,126,125,122,117,115,114,112,110,106,98,95,93,92,91,90,87},{2,3,4,8,11,15,17,20,25,28,31,32,33,34,36,41,46,47,49,53,58,62,64,73,76,78,79,80,123,120,116,111,104,103,101,96,89},{0,1,5,6,7,9,12,13,18,19,22,23,24,26,27,29,30,32,35,37,38,40,42,43,44,45,51,52,54,56,57,59,60,61,63,64,65,66,67,68,69,70,72,73,74,75,77,78,79,81,82,83,85,127,126,125,124,122,121,117,116,115,114,113,112,110,109,108,107,106,104,102,101,100,99,98,97,96,95,93,92,91,90,89,88},{1,5,7,9,12,19,22,23,26,27,29,37,40,43,44,51,54,55,56,59,61,63,65,66,67,69,70,74,75,83,87,127,126,125,122,121,118,115,114,112,110,109,107,106,105,102,97,95,94,92,91,90},{0,6,7,11,13,15,18,26,27,30,31,32,34,36,38,42,43,44,46,50,51,54,56,61,63,64,65,66,67,69,71,72,73,75,77,78,79,86,87,127,125,124,122,121,120,119,118,116,114,113,109,108,107,106,104,102,101,100,99,98,97,96,91,90},{0,1,5,6,7,9,12,13,18,19,21,22,23,24,26,27,29,32,35,37,38,40,42,44,45,50,51,52,54,56,57,60,61,63,64,65,66,67,68,69,70,72,73,74,75,77,78,79,81,82,83,85,87,88,89,127,126,125,124,122,121,117,116,115,114,113,112,110,109,108,107,106,104,101,100,99,98,97,96,95,93,92,91},{0,1,5,6,7,9,12,13,18,19,21,22,23,24,26,27,29,35,37,38,40,42,44,45,51,52,54,56,57,59,60,61,63,65,66,67,68,69,70,72,73,74,75,77,78,79,81,82,83,85,87,88,89,90,127,126,125,124,122,121,117,116,115,114,113,112,110,109,108,107,106,104,101,100,99,98,97,96,95,93,92},{1,5,6,7,9,12,13,19,21,22,23,24,26,27,29,35,37,40,42,44,45,51,52,55,57,59,60,61,63,65,67,68,69,70,74,75,81,82,83,85,87,88,90,91,127,126,125,122,121,117,115,114,112,110,106,105,99,98,95,94,93},{1,6,7,9,12,13,18,19,21,23,24,26,27,29,35,37,38,40,42,44,45,51,52,57,60,61,65,67,68,70,72,74,75,81,82,83,85,87,90,91,92,127,126,125,122,117,115,114,113,112,110,109,106,100,99,98,95},{1,5,12,22,55,56,59,63,66,69,70,74,75,83,88,92,126,121,110,106,105,95},{1,5,7,9,12,19,22,23,24,26,27,29,35,37,40,42,44,45,51,52,54,55,56,57,59,60,61,63,65,66,67,68,69,70,74,75,81,82,83,85,87,88,90,91,92,93,94,127,126,125,122,121,117,115,114,112,110,109,107,106,105,98},{0,6,7,11,13,15,18,26,27,30,31,32,33,34,38,42,50,51,54,61,64,65,67,72,73,75,77,78,79,86,87,89,90,91,127,124,120,116,113,109,108,107,104,101,100,99,98,97},{0,5,7,11,15,22,26,30,31,32,36,38,42,43,46,54,56,61,63,66,67,69,70,71,73,75,77,78,79,87,88,89,90,91,96,127,124,121,119,118,116,113,111,109,108,107,104,102,101,99},{1,6,7,9,13,18,19,21,23,24,26,27,29,35,37,38,40,42,44,45,51,52,57,60,61,63,64,65,66,67,68,69,70,72,73,74,75,77,78,79,81,82,83,85,87,89,90,91,92,93,95,96,127,126,125,124,122,121,117,116,115,114,113,112,110,109,108,107,106,104,101,100,99},{0,1,6,7,9,13,15,18,19,23,24,26,27,29,32,37,38,42,44,45,50,51,52,54,56,57,61,63,64,65,66,67,68,69,72,73,74,75,77,78,79,82,87,89,90,91,92,93,96,97,98,127,126,125,124,122,121,120,116,115,114,113,112,109,108,107,106,104,101,100},{1,6,7,13,15,18,19,26,27,32,33,38,42,44,50,51,61,63,64,65,67,68,72,73,74,75,77,78,79,82,87,89,90,91,93,96,98,99,127,125,124,122,120,116,114,113,112,109,108,107,106,104,101},{0,4,6,7,11,15,18,26,27,30,31,32,34,36,38,42,43,46,50,51,54,56,61,63,64,65,66,67,69,71,72,73,75,77,78,79,86,87,89,90,91,96,97,98,99,100,127,125,124,122,121,120,119,118,116,113,109,108,107,106,104,102},{0,5,7,11,12,22,26,30,31,32,36,38,42,43,46,54,56,59,61,63,66,67,69,70,71,73,75,78,79,87,88,89,97,101,127,121,119,118,116,113,109,108,107,104},{2,3,4,8,10,14,16,17,20,25,28,39,41,47,48,49,53,58,62,76,80,84,86,123},{0,6,7,11,13,15,18,26,27,30,31,32,33,34,36,38,42,43,50,51,54,56,61,63,64,65,67,72,73,75,77,78,79,86,87,89,90,91,96,97,98,99,100,101,102,127,125,124,122,120,116,114,113,109,108,107},{1,5,12,22,55,59,63,66,69,70,74,83,88,92,94,95,126,121,110,106},{1,5,6,7,9,12,13,18,19,21,22,23,24,26,27,29,35,37,38,40,42,44,45,51,52,54,55,56,57,59,60,61,63,65,66,67,68,69,70,72,74,75,77,78,81,82,83,85,87,88,89,90,91,92,93,94,95,98,99,100,101,105,127,126,125,122,121,117,115,114,113,112,110,109,108,107},{0,1,5,6,7,11,12,13,15,18,22,26,27,30,31,32,36,38,42,43,44,46,51,54,56,61,63,64,65,66,67,68,69,70,71,72,73,74,75,77,78,79,82,87,88,89,90,91,95,96,97,98,99,100,101,102,104,106,127,126,125,124,122,121,119,118,116,114,113,112,109,108},{0,7,11,15,18,22,26,27,30,31,32,36,38,42,43,46,51,54,56,61,63,64,65,66,67,69,71,72,73,75,77,78,79,87,89,90,91,96,97,98,99,100,101,102,104,106,107,127,125,124,122,121,119,118,116,113,109},{0,1,5,6,7,9,11,13,15,18,19,22,26,27,30,31,32,36,38,42,43,44,46,50,51,54,56,61,63,64,65,66,67,68,69,70,71,72,73,74,75,77,78,79,82,87,88,89,90,91,93,95,96,97,98,99,100,101,102,104,106,107,108,127,126,125,124,122,121,119,118,116,114,113,112},{1,5,6,7,9,12,19,21,22,23,24,26,27,29,35,37,40,42,44,45,51,52,55,57,59,60,61,63,65,66,67,68,69,70,74,75,81,82,83,85,87,88,90,91,92,93,94,95,98,105,106,127,126,125,122,121,117,115,114,112},{3,4,8,11,14,17,20,25,28,30,31,32,36,39,43,46,47,53,71,76,86,97,123,119},{1,5,6,7,9,12,13,18,19,21,22,23,24,26,27,29,35,37,38,40,42,44,45,51,52,55,57,59,60,61,63,65,67,68,69,70,72,74,75,81,82,83,85,87,88,90,91,92,93,95,98,99,100,106,107,109,110,127,126,125,122,121,117,115,114,113},{0,1,6,7,9,11,13,15,18,19,26,27,29,30,31,32,33,34,38,42,43,44,50,51,52,54,56,57,61,63,64,65,66,67,68,69,72,73,74,75,77,78,79,82,87,89,90,91,93,96,97,98,99,100,101,102,104,106,107,108,109,112,127,126,125,124,122,121,120,116,114},{1,5,6,7,9,12,13,18,19,21,23,24,26,27,29,35,37,38,40,42,44,45,51,52,57,60,61,63,65,66,67,68,69,70,72,73,74,75,77,78,81,82,83,85,87,88,89,90,91,92,93,95,98,99,100,104,106,107,109,110,112,113,127,126,125,124,122,121,117,116,115},{1,5,6,7,9,12,13,19,21,23,24,26,27,29,35,37,40,42,44,45,51,52,57,60,61,65,67,68,70,72,74,75,81,82,83,85,87,88,90,91,92,93,95,98,99,106,110,112,114,127,126,125,122,117},{0,4,6,7,11,13,15,18,26,27,30,31,32,33,34,36,38,42,43,46,50,51,54,56,61,63,64,65,66,67,72,73,75,77,78,79,86,87,89,90,91,96,97,98,99,100,101,102,104,107,108,109,113,114,127,125,124,122,120,119},{1,6,7,9,13,19,21,23,24,27,29,35,37,40,42,44,45,51,52,57,60,61,65,67,68,74,75,81,82,83,85,87,90,91,92,93,95,98,106,110,112,114,115,126,125,122},{0,11,22,26,30,36,43,46,54,56,63,66,69,71,78,79,88,89,97,101,102,107,108,109,121,119},{0,11,15,26,30,31,32,36,43,46,54,56,63,66,69,71,73,78,79,89,97,101,102,107,108,109,111,116,118,121},{2,4,11,15,18,31,32,33,34,38,50,62,64,72,73,77,78,86,89,96,99,100,101,104,113,116,124},{0,1,5,6,7,9,12,18,19,22,23,26,27,29,30,37,38,40,42,43,44,51,54,55,56,59,61,63,65,66,67,68,69,70,71,72,74,75,78,79,83,87,88,89,90,91,92,94,95,97,98,99,101,102,105,106,107,108,109,110,112,113,114,118,119,127,126,125,122},{1,5,6,7,9,12,13,18,19,21,22,23,24,26,27,29,35,37,38,40,42,44,45,51,52,57,59,60,61,63,65,66,67,68,69,70,72,73,74,75,77,78,81,82,83,85,87,88,89,90,91,92,93,95,98,99,100,101,104,106,107,108,109,110,112,113,114,115,116,117,121,127,126,125,124},{2,3,4,8,10,14,17,20,25,28,39,41,47,48,49,53,58,62,76,80,84,86,103,111},{0,6,7,11,13,15,18,26,27,30,32,33,34,38,42,44,50,51,61,63,64,65,67,68,72,73,75,77,78,79,82,87,89,90,91,96,97,98,99,100,101,104,107,108,109,113,114,116,120,122,127,125},{1,5,6,7,9,12,13,18,19,21,22,23,24,26,27,29,35,37,38,40,42,44,45,51,52,57,59,60,61,63,65,66,67,68,69,70,72,73,74,75,77,78,81,82,83,85,87,88,89,90,91,92,93,95,98,99,100,101,104,106,107,108,109,110,112,113,114,115,116,117,121,122,124,127,126},{1,5,6,7,9,12,13,19,21,22,23,24,26,27,29,35,37,40,42,44,45,51,52,54,55,56,57,59,60,61,63,65,66,67,68,69,70,72,74,75,81,82,83,85,87,88,90,91,92,93,94,95,98,99,105,106,107,109,110,112,113,114,115,117,121,122,125,127},{0,1,5,6,7,9,11,12,13,15,18,19,22,23,24,26,27,29,30,31,32,37,38,40,42,43,44,45,50,51,52,54,56,57,59,61,63,64,65,66,67,68,69,70,72,73,74,75,77,78,79,81,82,83,87,88,89,90,91,92,93,95,96,97,98,99,100,101,102,104,106,107,108,109,110,112,113,114,115,116,121,122,124,125,126}];
weights=[4,2,5,8,2,19,13,11,16,13,3,2,9,12,3,11,17,1,4,4,16,11,4,6,9,12,9,14,10,3,11,11,4,13,15,3,12,8,13,6,17,15,4,7,4,6,14,1,7,17,2,3,6,5,5,14,13,10,5,1,12,16,8,13,9,3,15,17,7,5,3,5,16,7,11,1,12,2,17,15,15,15,17,1,16,18,15,7,8,19,7,17,12,14,10,17,13,2,15,19,6,14,4,2,1,11,18,10,12,13,2,8,5,16,8,2,14,19,5,19,16,8,16,8,18,3,6,11];
